(set-logic SLIA)
(synth-fun f ((_arg_0 String)) String
  ( (Start String (ntString))
  (argString String (
	_arg_0
  ))
  (conString String (
	" "
	"."
  ))
  (fullString String (
	conString
	(str.substr argString ntInt ntInt)
  ))
  (regex String (
	"ProperCase"
	"CAPS"
	"lowercase"
	"Digits"
	"Alphabets"
	"Alphanumeric"
	"WhiteSpace"
	"StartT"
	"EndT"
	"ProperCaseWSpaces"
	"CAPSWSpaces"
	"lowercaseSpaces"
	"AlphabetsWSpaces"
	"Sep"
  ))
  (ntString String (
	fullString
	(str.++ fullString ntString)
  ))
  (direction Int (
	0 1
  ))
  (conPos Int (
	0 1 2 3 4 5 6 7 8 9 10
  ))
  (conMatch Int (
	1 2 3 -1 -2 -3
  ))
  (ntInt Int (
	conPos
	(str.indexof argString regex conMatch direction)
  ))
 )
)

(constraint (= (f "Launa|Withers") "L. Withers"))
(constraint (= (f "Lakenya|Edison") "L. Edison"))
(constraint (= (f "Brendan|Hage") "B. Hage"))
(constraint (= (f "Bradford|Lango") "B. Lango"))
(constraint (= (f "Rudolf|Akiyama") "R. Akiyama"))
(constraint (= (f "Lara|Constable") "L. Constable"))
(check-synth)
